StudentsNr = 10;
InstructorsNr = 42;
DaysNr = 1;
SlotsPerDay = 60;
AvailabilitySlotsLenght = 60;
RoomNr = 1;
ProgrammNr = 2;
DegreeNr = 1;
RolesNr = 2;
CoursesNr = 9;
InstructorsProgramm = [{1}, {2}, {1}, {2}, {1}, {1}, {2}, {1}, {1, 2}, {2}, {1, 2}, {2}, {2}, {1, 2}, {1, 2}, {1}, {2}, {1}, {2}, {2}, {1}, {2}, {1, 2}, {1}, {1}, {2}, {1}, {2}, {2}, {1}, {1}, {2}, {1}, {1, 2}, {2}, {1, 2}, {1}, {2}, {2}, {1, 2}, {1, 2}, {2}];
InstructorRolesPerProgramm = [|{1, 14, 15, 16, 25, 27, 40, 41}, {1, 8, 15, 23, 30, 31, 33, 34, 36, 37}|{2, 13, 14, 15, 20, 26, 32, 35, 38, 40, 41, 42}, {4, 10, 13, 15, 20, 23, 26, 28, 29, 34, 35, 36, 42}|];
InstructorsAvailability = [|0, |1, |0, |0, |0, |1, |0, |1, |0, |0, |0, |0, |1, |1, |0, |0, |0, |1, |0, |0, |0, |0, |1, |1, |0, |0, |0, |0, |1, |1, |1, |1, |1, |0, |1, |0, |1, |1, |0, |0, |0, |0|];
StudentsProgramm = [2, 1, 2, 2, 1, 2, 2, 2, 1, 2];
StudentsDegree = [1, 1, 1, 1, 1, 1, 1, 1, 1, 1];
StudentsSupervisorId = [2, 18, 9, 19, 34, 12, 17, 20, 33, 10];
StudentsCourseIds = [{2, 3, 4, 6, 7, 9}, {1, 3, 4, 6, 8, 9}, {1, 3, 4, 7, 8, 9}, {2, 4, 5, 6, 7, 9}, {1, 2, 5, 6, 7, 9}, {1, 2, 3, 5, 8, 9}, {2, 3, 4, 5, 8, 9}, {1, 3, 4, 6, 7, 8}, {1, 2, 4, 5, 6, 9}, {1, 2, 4, 6, 8, 9}];
StudentsAvailability = [|1, |0, |1, |1, |0, |0, |1, |0, |1, |0|];
TheoryticalMinCard = [0, 0, 0, 0, 0, 0, 0, 0, 0, 0];
CoursesInstructorIds = [{4, 7, 8, 9, 10, 12, 13, 17, 19, 22, 28, 29, 30, 31, 32, 33, 35, 36, 39, 40}, {6, 7, 8, 10, 13, 18, 21, 23, 27, 28, 29, 30, 31, 33, 36, 38, 39, 42}, {1, 10, 13, 17, 18, 19, 26, 27, 30, 39, 41}, {5, 9, 11, 32, 33, 38}, {16, 28, 38}, {5, 6, 7, 8, 9, 11, 13, 14, 15, 16, 21, 24, 26, 27, 31, 34, 36, 37, 41, 42}, {1, 4, 9, 11, 12, 16, 19, 20, 23, 25, 28, 29, 30, 32, 33, 34, 41}, {2, 3, 4, 5, 7, 10, 11, 12, 14, 17, 19, 20, 21, 22, 23, 24, 25, 26, 27, 28, 29, 32, 34, 38, 39, 40, 41}, {2, 6, 7, 10, 25, 26, 27, 29, 30, 35, 36, 39}];
RolesDemands = [8, 3];
RolesContinuity = [];
ExamLen = [2, 2, 2, 2, 2, 2, 2, 2, 2, 2];
LunchTsMinLen = 2;
LunchStarts = [27..42];
SupervisorAvailable = 5;
OptimalLunchLenght = [2, 2];
OptimalStartTs = [2, 1];
OptimalFinishTs = [2, 60];
MinimizeRooms = 300;
RolesSoftContinuity = [|1, 2|1, 1|];
SameDegreeInRoom = 20;
Mergeability = 2;
